Name: L-Tryptophane
Synon: L-Tryptophan
Synon: (S)-alpha-Amino-beta-(3-indolyl)-propionic acid
Synon: Tryptophan
SYNON: $:00in-source
DB#: PR010037
InChIKey: QIVBCDIJIAJPQS-VIFPVBQESA-N
Spectrum_type: MS1
Instrument_type: GC-EI-TOF
Instrument: Pegasus III TOF-MS system, Leco; GC 6890, Agilent Technologies
Ion_mode: P
Retention_index: 2216.3
InChIKey: QIVBCDIJIAJPQS-VIFPVBQESA-N
Formula: C11H12N2O2
MW: 204
ExactMass: 204.089877624
Comments: "accession=PR010037" "author=Kusano M, Fukushima A, Plant Science Center, RIKEN." "license=CC BY-SA" "exact mass=204.08988" "instrument=Pegasus III TOF-MS system, Leco; GC 6890, Agilent Technologies" "instrument type=GC-EI-TOF" "ms level=MS1" "retention index=2216.3" "retention time=523.416 sec" "derivative formula=C20H36N2O2Si3" "derivative mass=420.20846" "derivatization type=3 TMS" "ionization mode=positive" "compound class=Natural Product" "SMILES=OC(=O)[C@H](N)Cc(c1)c(c2)c(ccc2)n1" "cas=73-22-3" "chebi=16828" "kegg=C00078" "pubchem=3378" "InChI=InChI=1S/C11H12N2O2/c12-9(11(14)15)5-7-6-13-10-4-2-1-3-8(7)10/h1-4,6,9,13H,5,12H2,(H,14,15)/t9-/m0/s1" "molecular formula=C11H12N2O2" "total exact mass=204.089877624" "SMILES=C1=CC=C2C(=C1)C(CC(C(=O)O)N)=CN2" "InChIKey=QIVBCDIJIAJPQS-VIFPVBQESA-N"
Num Peaks: 104
60 0.300300
61 0.300300
62 0.100100
63 0.200200
66 0.100100
67 0.100100
70 0.400400
71 0.300300
72 1.501502
73 100.000000
74 8.908909
75 5.005005
76 0.600601
77 1.501502
78 0.200200
79 0.300300
83 0.100100
84 0.400400
85 0.100100
86 0.500501
87 0.200200
89 0.100100
91 0.100100
93 0.100100
100 3.903904
101 1.901902
102 1.001001
103 0.700701
104 0.100100
105 0.200200
114 0.100100
115 0.600601
116 0.200200
117 0.400400
118 0.100100
119 0.200200
128 0.300300
129 1.401401
130 2.602603
131 1.101101
132 1.301301
133 0.800801
134 0.300300
135 0.100100
142 0.100100
143 0.200200
144 0.300300
145 0.800801
146 0.400400
147 3.103103
148 0.500501
149 0.200200
156 0.400400
157 0.100100
158 0.300300
159 0.300300
160 0.400400
161 0.100100
163 0.100100
169 0.100100
170 0.400400
171 0.100100
172 0.400400
173 0.100100
174 0.300300
184 0.300300
185 0.100100
186 0.700701
187 0.300300
188 0.500501
189 0.100100
190 0.700701
191 0.100100
198 0.100100
199 0.400400
200 2.102102
201 0.600601
202 70.470470
203 14.414414
204 4.304304
205 0.600601
214 0.100100
215 0.200200
216 0.100100
218 2.702703
219 0.500501
220 0.200200
229 0.100100
230 0.500501
231 0.100100
248 0.100100
288 0.100100
290 0.100100
291 5.905906
292 1.701702
293 0.800801
294 0.100100
302 0.100100
303 0.400400
304 0.100100
377 0.100100
378 0.100100
405 0.200200
406 0.100100

Name: tryptophol
Synon: Tryptophol
Synon: Indole-3-ethanol
Synon: Indoleethanol
Synon: Indole ethanol
Synon: 3-Indoleethanol
Synon: 1H-Indole-3-ethanol
Synon: 2-(1H-indol-3-yl)ethanol
SYNON: $:00in-source
DB#: FiehnLib000925
InChIKey: MBBOMCVGYCRMEA-UHFFFAOYSA-N
Spectrum_type: MS1
Instrument_type: GC-EI-TOF
Instrument: Leco Pegasus IV
Ion_mode: P
Retention_index: 658467
InChIKey: MBBOMCVGYCRMEA-UHFFFAOYSA-N
Formula: C10H11NO
MW: 161
ExactMass: 161.084063972
Comments: "chromatogram=051104bylcs11" "retention index=658467" "derivatization type=2 TMS" "derivatization mass=305.163" "ms level=MS1" "instrument=Leco Pegasus IV" "instrument type=GC-EI-TOF" "ion source temperature=250C" "transfer line temperature=230C" "ionization energy=-70 eV" "scan range=80-500 Da" "column=Restek Corporation Rtx-5Sil MS (30 m length x 0.25 mm internal diameter with 0.25 µm film made of 95% dimethyl/5%diphenylpolysiloxane)" "guard column=10m" "mobile phase=helium" "column temperature=50-330°C" "flow rate=1 mL min-1" "injection volume=0.5 µL" "injection=25 splitless time into a multi-baffled glass liner" "injection temperature=50°C ramped to 250°C by 12°C s-1" "oven temperature=50°C for 1 min, then ramped at 20°C min-1 to 330°C, held constant for 5 min." "detector voltage=1800 V" "data transformation=BinBase" "data transformation=WHOLE ChromaTOF ver. 4.x" "ionization mode=positive" "PubChem=10685" "InChI=InChI=1S/C10H11NO/c12-6-5-8-7-11-10-4-2-1-3-9(8)10/h1-4,7,11-12H,5-6H2" "InChIKey=MBBOMCVGYCRMEA-UHFFFAOYSA-N" "molecular formula=C10H11NO" "total exact mass=161.084063972" "SMILES=C1=CC=C2C(=C1)C(CCO)=CN2"
Num Peaks: 96
85 0.300300
86 0.200200
87 0.600601
88 1.301301
89 1.901902
90 0.600601
91 0.800801
92 0.100100
93 0.300300
94 0.100100
99 0.100100
100 0.100100
101 0.700701
102 1.501502
103 2.702703
104 0.500501
105 1.001001
106 0.100100
107 0.100100
113 0.200200
114 0.300300
115 6.006006
116 1.401401
117 1.801802
118 0.300300
119 0.700701
120 0.200200
121 0.100100
127 0.300300
128 1.001001
129 1.801802
130 3.803804
131 1.701702
132 0.600601
133 0.500501
134 0.400400
135 0.100100
140 0.200200
141 0.300300
142 1.901902
143 2.702703
144 1.601602
145 4.804805
146 1.101101
147 7.207207
148 1.101101
149 0.500501
154 0.300300
155 0.100100
156 1.501502
157 0.300300
158 0.400400
159 0.400400
160 0.800801
161 0.100100
168 0.100100
169 0.400400
170 1.601602
171 0.300300
172 1.301301
173 0.300300
174 0.500501
175 0.100100
182 0.300300
183 0.100100
184 1.201201
185 0.400400
186 2.002002
187 0.500501
188 0.300300
189 0.100100
198 0.500501
199 0.300300
200 2.502503
201 0.700701
202 100.000000
203 14.914915
204 4.004004
205 0.400400
213 0.100100
214 1.001001
215 0.900901
216 5.405405
217 1.101101
218 0.300300
230 0.100100
232 0.100100
233 0.100100
290 1.301301
291 0.300300
292 0.100100
304 0.100100
305 6.406406
306 1.901902
307 0.700701
308 0.100100

Name: Indole-3-acetic acid
Synon: Indoleacetic acid
SYNON: $:00in-source
DB#: KZ000036
InChIKey: SEOVTRFCIGRIMH-UHFFFAOYSA-N
Spectrum_type: MS1
Instrument_type: GC-EI-TOF
Instrument: Pegasus III TOF-MS system, Leco; GC 6890, Agilent Technologies
Ion_mode: P
Retention_index: 2243.9
InChIKey: SEOVTRFCIGRIMH-UHFFFAOYSA-N
Formula: C10H9NO2
MW: 175
ExactMass: 175.063328528
Comments: "accession=KZ000036" "author=Ara T, Morishita Y, Shibata D, Kazusa DNA Research Institute" "license=CC BY-SA" "exact mass=175.06333" "instrument=Pegasus III TOF-MS system, Leco; GC 6890, Agilent Technologies" "instrument type=GC-EI-TOF" "ms level=MS1" "column=DB-17MS" "retention index=2243.9" "retention time=1016.44 sec" "derivatization type=2 TMS" "ionization mode=positive" "compound class=Natural Product" "SMILES=OC(=O)Cc(c1)c(c2)c(ccc2)n1" "cas=87-51-4" "kegg=C00954" "InChI=InChI=1S/C10H9NO2/c12-10(13)5-7-6-11-9-4-2-1-3-8(7)9/h1-4,6,11H,5H2,(H,12,13)" "molecular formula=C10H9NO2" "total exact mass=175.063328528" "SMILES=C1=CC=C2C(=C1)C(CC(=O)O)=CN2" "InChIKey=SEOVTRFCIGRIMH-UHFFFAOYSA-N"
Num Peaks: 100
82 0.100100
83 0.300300
84 0.500501
85 0.100100
87 0.200200
89 0.500501
90 0.200200
91 0.400400
92 0.300300
93 0.500501
99 0.100100
100 0.200200
101 1.401401
102 4.104104
103 1.701702
104 0.400400
105 0.700701
107 0.100100
108 0.100100
113 0.100100
115 1.101101
117 1.101101
118 0.200200
119 0.600601
121 0.100100
127 0.100100
128 1.801802
129 3.003003
130 3.703704
131 1.401401
132 0.400400
133 0.400400
134 0.100100
140 0.300300
141 0.200200
142 0.200200
143 0.800801
144 0.700701
145 3.503504
146 0.900901
147 4.504505
148 0.600601
149 0.300300
152 0.600601
154 0.100100
155 0.100100
156 1.401401
157 0.400400
158 0.100100
159 0.300300
160 1.201201
161 0.400400
162 0.200200
168 0.100100
169 0.100100
170 1.501502
171 0.400400
172 1.401401
173 0.100100
174 0.300300
175 0.100100
183 0.100100
184 0.600601
185 0.300300
186 4.204204
187 2.002002
188 0.500501
189 0.100100
193 0.100100
198 0.200200
199 0.300300
200 5.105105
201 1.501502
202 100.000000
203 16.016016
204 3.603604
216 0.100100
217 0.100100
218 0.100100
229 0.200200
230 0.300300
231 0.200200
244 0.100100
246 0.100100
247 0.100100
249 0.100100
260 0.200200
275 0.300300
276 1.901902
277 1.001001
278 0.100100
303 0.100100
304 2.802803
305 0.400400
306 0.100100
318 0.700701
319 9.209209
320 1.901902
321 0.400400
322 0.100100

Name: N-acetyltryptophan
Synon: (2S)-2-[(1-hydroxyethylidene)amino]-3-(1H-indol-3-yl)propanoic acid
SYNON: $:00in-source
DB#: HMDB0013713_c_ms_1950
InChIKey: DZTHIGRZJZPRDV-LBPRGKRZSA-N
Instrument_type: GC-MS
Retention_index: 2393.65
InChIKey: DZTHIGRZJZPRDV-LBPRGKRZSA-N
Formula: C13H14N2O3
MW: 246
ExactMass: 246.100442308
Comments: "column=5%-phenyl-95%-dimethylpolysiloxane capillary column" "derivatization type=3 TMS" "derivatization formula=C22H38N2O3Si3" "derivative mw=462.806" "retention index=2393.65" "retention index type=based on 9 n-alkanes (C10–C36)" "instrument type=GC-MS" "chromatography type=GC" "SMILES=[H][C@@](CC1=CNC2=CC=CC=C12)(N=C(C)O)C(O)=O" "cas number=1218-34-4" "InChI=InChI=1S/C13H14N2O3/c1-8(16)15-12(13(17)18)6-9-7-14-11-5-3-2-4-10(9)11/h2-5,7,12,14H,6H2,1H3,(H,15,16)(H,17,18)/t12-/m0/s1" "InChIKey=DZTHIGRZJZPRDV-LBPRGKRZSA-N" "molecular formula=C13H14N2O3" "total exact mass=246.100442308" "SMILES=CC(=NC(CC1=CNC2=CC=CC=C12)(C(=O)O)[H])O" "InChI=InChI=1S/C13H14N2O3/c1-8(16)15-12(13(17)18)6-9-7-14-11-5-3-2-4-10(9)11/h2-5,7,12,14H,6H2,1H3,(H,15,16)(H,17,18)/t12-/m0/s1" "InChIKey=DZTHIGRZJZPRDV-LBPRGKRZSA-N"
Num Peaks: 309
70.0 0.01
71.0 0.007
72.0 0.028
76.0 0.02
77.0 0.02
78.0 0.004
79.0 0.003
80.0 0.001
81.0 0.001
82.0 0.013
83.0 0.003
84.0 0.009
85.0 0.004
86.0 0.005
87.0 0.005
88.0 0.003
89.0 0.006
90.0 0.002
91.0 0.003
92.0 0.001
93.0 0.002
94.0 0.001
95.0 0.001
96.0 0.0
97.0 0.0
98.0 0.002
99.0 0.002
100.0 0.037
101.0 0.014
102.0 0.022
103.0 0.013
104.0 0.003
105.0 0.006
106.0 0.001
107.0 0.001
108.0 0.0
109.0 0.0
110.0 0.0
111.0 0.0
112.0 0.001
113.0 0.004
114.0 0.01
115.0 0.024
116.0 0.018
117.0 0.013
118.0 0.003
119.0 0.006
120.0 0.001
121.0 0.001
122.0 0.0
123.0 0.0
124.0 0.0
125.0 0.0
126.0 0.001
127.0 0.003
128.0 0.009
129.0 0.034
130.0 0.036
131.0 0.019
132.0 0.01
133.0 0.02
134.0 0.005
135.0 0.002
136.0 0.0
137.0 0.0
138.0 0.0
139.0 0.0
140.0 0.003
141.0 0.003
142.0 0.012
143.0 0.009
144.0 0.006
145.0 0.016
146.0 0.006
150.0 0.002
151.0 0.001
152.0 0.0
153.0 0.001
154.0 0.004
155.0 0.002
156.0 0.011
157.0 0.004
158.0 0.004
159.0 0.003
160.0 0.006
161.0 0.002
162.0 0.001
163.0 0.001
164.0 0.0
165.0 0.0
166.0 0.0
167.0 0.001
168.0 0.002
169.0 0.004
170.0 0.012
171.0 0.005
172.0 0.007
173.0 0.003
174.0 0.005
175.0 0.003
176.0 0.001
177.0 0.0
178.0 0.0
179.0 0.0
180.0 0.0
181.0 0.001
182.0 0.003
183.0 0.01
184.0 0.007
185.0 0.003
186.0 0.01
187.0 0.004
188.0 0.004
189.0 0.002
190.0 0.002
191.0 0.001
192.0 0.0
193.0 0.0
194.0 0.0
195.0 0.0
196.0 0.001
197.0 0.001
198.0 0.004
199.0 0.003
200.0 0.033
201.0 0.009
202.0 1.0
203.0 0.198
204.0 0.054
205.0 0.007
206.0 0.001
207.0 0.001
208.0 0.0
209.0 0.0
210.0 0.0
211.0 0.0
212.0 0.001
213.0 0.003
214.0 0.006
215.0 0.008
216.0 0.005
217.0 0.001
218.0 0.036
219.0 0.008
220.0 0.003
221.0 0.002
222.0 0.001
223.0 0.0
224.0 0.0
225.0 0.0
226.0 0.001
227.0 0.001
228.0 0.002
229.0 0.006
230.0 0.008
231.0 0.003
232.0 0.002
233.0 0.0
234.0 0.0
235.0 0.0
236.0 0.0
237.0 0.0
238.0 0.0
239.0 0.001
240.0 0.001
241.0 0.001
242.0 0.004
243.0 0.002
244.0 0.001
245.0 0.004
246.0 0.003
247.0 0.001
248.0 0.001
249.0 0.0
250.0 0.0
251.0 0.0
253.0 0.0
254.0 0.0
255.0 0.004
256.0 0.002
257.0 0.001
258.0 0.003
259.0 0.001
260.0 0.009
261.0 0.002
262.0 0.001
263.0 0.0
264.0 0.0
267.0 0.0
268.0 0.0
269.0 0.0
270.0 0.0
271.0 0.0
272.0 0.007
273.0 0.002
274.0 0.001
275.0 0.0
276.0 0.0
277.0 0.0
278.0 0.0
281.0 0.0
282.0 0.0
283.0 0.0
284.0 0.0
285.0 0.0
286.0 0.0
287.0 0.0
288.0 0.001
289.0 0.0
290.0 0.001
291.0 0.0
292.0 0.0
293.0 0.0
295.0 0.0
299.0 0.0
300.0 0.0
301.0 0.0
302.0 0.001
303.0 0.001
304.0 0.002
305.0 0.001
306.0 0.0
307.0 0.0
308.0 0.0
312.0 0.0
313.0 0.0
314.0 0.0
315.0 0.0
316.0 0.003
317.0 0.001
318.0 0.009
319.0 0.003
320.0 0.001
321.0 0.0
322.0 0.0
323.0 0.0
324.0 0.0
325.0 0.0
326.0 0.0
327.0 0.0
328.0 0.0
329.0 0.001
330.0 0.001
331.0 0.024
332.0 0.008
333.0 0.035
334.0 0.012
335.0 0.005
336.0 0.001
337.0 0.0
338.0 0.0
340.0 0.0
343.0 0.0
344.0 0.0
345.0 0.001
346.0 0.0
347.0 0.0
348.0 0.0
352.0 0.0
353.0 0.0
354.0 0.0
355.0 0.0
356.0 0.0
357.0 0.0
358.0 0.0
369.0 0.0
370.0 0.0
371.0 0.0
372.0 0.0
373.0 0.0
374.0 0.0
375.0 0.0
377.0 0.0
378.0 0.0
379.0 0.0
380.0 0.0
381.0 0.0
383.0 0.0
385.0 0.0
386.0 0.0
387.0 0.0
388.0 0.0
389.0 0.0
390.0 0.0
391.0 0.0
400.0 0.0
403.0 0.0
404.0 0.0
405.0 0.0
406.0 0.0
416.0 0.0
418.0 0.0
419.0 0.001
420.0 0.0
421.0 0.0
422.0 0.0
446.0 0.0
447.0 0.003
448.0 0.002
449.0 0.001
450.0 0.0
461.0 0.001
462.0 0.007
463.0 0.004
464.0 0.002
465.0 0.0
466.0 0.0
535.0 0.0
552.0 0.0

Name: beta-D-(+)-Glucose
Synon: beta-D-Glucose
SYNON: $:00in-source
DB#: PR010079
InChIKey: WQZGKKKJIJFFOK-VFUOTHLCSA-N
Spectrum_type: MS1
Instrument_type: GC-EI-TOF
Instrument: Pegasus III TOF-MS system, Leco; GC 6890, Agilent Technologies
Ion_mode: P
Retention_index: 1882.4
InChIKey: WQZGKKKJIJFFOK-VFUOTHLCSA-N
Formula: C6H12O6
MW: 180
ExactMass: 180.06338810399998
Comments: "accession=PR010079" "author=Kusano M, Fukushima A, Plant Science Center, RIKEN." "license=CC BY-SA" "exact mass=180.06339" "instrument=Pegasus III TOF-MS system, Leco; GC 6890, Agilent Technologies" "instrument type=GC-EI-TOF" "ms level=MS1" "retention index=1882.4" "retention time=459.562 sec" "derivative formula=C22H55NO6Si5" "derivative mass=569.28757" "derivatization type=5 TMS; 1 MEOX" "ionization mode=positive" "compound class=Natural Product" "SMILES=OCC(O1)C(O)C(O)C(O)C(O)1" "cas=492-61-5" "chebi=15903" "kegg=C00221" "pubchem=3521" "InChI=InChI=1S/C6H12O6/c7-1-2-3(8)4(9)5(10)6(11)12-2/h2-11H,1H2/t2-,3-,4+,5-,6-/m1/s1" "molecular formula=C6H12O6" "total exact mass=180.06338810399998" "SMILES=C(C1C(C(C(C(O)O1)O)O)O)O" "InChIKey=WQZGKKKJIJFFOK-VFUOTHLCSA-N"
Num Peaks: 150
60 0.500501
61 0.700701
66 0.500501
67 0.400400
69 0.100100
70 0.500501
71 0.300300
72 1.701702
73 100.000000
74 8.508509
75 6.106106
76 0.400400
77 0.500501
81 0.100100
82 0.500501
83 1.301301
84 0.300300
85 0.300300
86 0.500501
87 0.500501
88 0.400400
89 5.705706
90 0.500501
91 0.200200
97 0.200200
98 0.100100
99 0.400400
100 1.201201
101 1.601602
102 0.900901
103 11.411411
104 1.101101
105 2.602603
106 0.200200
107 0.100100
110 0.100100
111 0.200200
112 0.100100
113 0.300300
114 1.001001
115 0.700701
116 0.600601
117 7.707708
118 0.800801
119 0.800801
126 0.100100
127 0.300300
128 0.300300
129 9.509510
130 1.801802
131 2.302302
132 0.400400
133 5.205205
134 0.700701
135 0.400400
141 0.100100
142 0.400400
143 1.101101
144 0.200200
145 0.600601
146 0.100100
147 24.324324
148 3.803804
149 2.302302
150 0.200200
151 0.100100
155 0.100100
156 0.100100
157 6.506507
158 1.101101
159 0.500501
160 11.911912
161 2.102102
162 0.600601
163 0.700701
164 0.100100
168 0.100100
169 0.100100
170 0.100100
172 0.200200
173 0.300300
174 0.100100
175 0.300300
176 0.100100
177 0.300300
186 0.200200
187 0.100100
188 0.100100
189 2.202202
190 0.600601
191 1.101101
192 0.200200
193 0.100100
200 0.100100
201 0.600601
202 0.200200
203 0.300300
204 2.302302
205 16.116116
206 3.203203
207 1.601602
208 0.200200
210 0.200200
215 0.200200
216 0.600601
217 7.007007
218 1.501502
219 0.700701
220 0.100100
221 0.400400
222 0.100100
228 0.100100
229 1.801802
230 0.500501
231 0.800801
232 0.300300
233 0.500501
234 0.200200
235 0.100100
243 0.100100
244 0.200200
245 0.100100
246 0.200200
247 0.100100
256 0.100100
262 0.300300
263 0.100100
269 0.100100
270 0.100100
273 0.100100
274 0.300300
275 0.100100
277 0.300300
278 0.100100
291 0.600601
292 0.100100
293 0.100100
300 0.100100
305 0.400400
306 0.100100
307 0.300300
308 0.100100
318 0.200200
319 12.112112
320 3.603604
321 1.801802
322 0.300300
364 0.200200
365 0.100100
374 0.100100

Name: Uridine 5'-diphospho-N-acetylglucosamine
SYNON: $:00in-source
DB#: PR010241
InChIKey: LFTYTUAZOPRMMI-CFRASDGPSA-N
Spectrum_type: MS1
Instrument_type: GC-EI-TOF
Instrument: Pegasus III TOF-MS system, Leco; GC 6890, Agilent Technologies
Ion_mode: P
Retention_index: 1817.1
InChIKey: LFTYTUAZOPRMMI-CFRASDGPSA-N
Formula: C17H27N3O17P2
MW: 607
ExactMass: 607.081569664
Comments: "accession=PR010241" "author=Kusano M, Fukushima A, Plant Science Center, RIKEN." "license=CC BY-SA" "exact mass=607.08157" "instrument=Pegasus III TOF-MS system, Leco; GC 6890, Agilent Technologies" "instrument type=GC-EI-TOF" "ms level=MS1" "retention index=1817.1" "retention time=477.898 sec" "derivative formula=C{17+3*n}H{27+8*n}N3O17P2Si{n}" "derivative mass=607.08157+72.03953*n" "derivatization type=n TMS" "ionization mode=positive" "compound class=Natural Product" "SMILES=OCC(O1)C(O)C(O)C(NC(C)=O)C1OP(O)(=O)OP(O)(=O)OCC(O2)C(O)C(O)C2N(C=3)C(=O)NC(=O)C3" "cas=91183-98-1" "InChI=InChI=1S/C17H27N3O17P2/c1-6(22)18-10-13(26)11(24)7(4-21)35-16(10)36-39(31,32)37-38(29,30)33-5-8-12(25)14(27)15(34-8)20-3-2-9(23)19-17(20)28/h2-3,7-8,10-16,21,24-27H,4-5H2,1H3,(H,18,22)(H,29,30)(H,31,32)(H,19,23,28)/t7-,8-,10-,11-,12-,13-,14-,15-,16-/m1/s1" "molecular formula=C17H27N3O17P2" "total exact mass=607.081569664" "SMILES=CC(=NC1C(C(C(CO)OC1OP(O)(=O)OP(O)(=O)OCC2C(C(C(N3C=CC(=NC3=O)O)O2)O)O)O)O)O" "InChIKey=LFTYTUAZOPRMMI-CFRASDGPSA-N"
Num Peaks: 183
60 0.900901
61 1.801802
62 0.100100
63 0.100100
65 0.100100
66 0.900901
67 0.400400
68 0.100100
69 0.800801
70 0.900901
71 0.700701
72 2.202202
73 100.000000
74 9.109109
75 10.610611
76 0.900901
77 1.301301
78 0.100100
79 0.600601
80 0.400400
81 0.600601
82 0.500501
83 2.902903
84 6.906907
85 1.201201
86 0.400400
87 0.800801
88 0.400400
89 3.603604
90 0.300300
91 0.200200
94 0.200200
95 0.100100
96 0.800801
97 0.200200
98 0.300300
99 1.001001
100 1.501502
101 2.802803
102 0.700701
103 6.806807
104 0.700701
105 0.500501
108 0.400400
109 0.200200
110 0.200200
111 0.700701
112 0.300300
113 1.901902
114 0.900901
115 1.801802
116 2.402402
117 9.909910
118 1.101101
119 1.101101
120 0.100100
121 0.100100
122 0.200200
124 0.200200
125 0.100100
126 0.200200
127 0.300300
128 1.401401
129 5.205205
130 1.201201
131 3.003003
132 0.700701
133 5.005005
134 0.700701
135 0.600601
136 0.300300
138 0.100100
140 0.100100
141 0.200200
142 0.500501
143 1.201201
144 0.700701
145 0.400400
146 0.100100
147 15.915916
148 2.502503
149 2.802803
150 0.500501
151 0.200200
152 0.100100
153 0.100100
154 0.200200
155 0.200200
156 2.602603
157 1.201201
158 0.700701
159 1.501502
160 0.900901
161 0.200200
162 0.100100
163 1.001001
164 0.100100
165 0.100100
168 0.600601
169 0.400400
170 1.501502
171 0.200200
172 0.200200
173 1.501502
174 0.500501
175 0.500501
176 0.100100
177 0.600601
178 0.100100
181 0.100100
182 0.600601
183 0.200200
184 0.600601
185 0.200200
186 0.200200
187 0.100100
189 2.602603
190 0.600601
191 4.204204
192 0.800801
193 0.400400
194 0.100100
196 0.400400
197 0.300300
198 1.201201
199 0.200200
200 0.100100
201 0.200200
202 1.001001
203 2.402402
204 4.204204
205 1.401401
206 0.400400
207 0.100100
210 0.500501
211 0.300300
212 0.100100
215 0.400400
216 0.100100
217 5.505506
218 5.105105
219 1.301301
220 0.400400
221 0.100100
224 0.300300
225 0.100100
226 2.802803
227 0.500501
228 0.200200
229 0.100100
230 0.500501
231 2.302302
232 0.500501
233 1.301301
234 0.200200
235 0.100100
239 0.300300
240 0.100100
243 0.100100
244 0.100100
245 0.100100
246 0.400400
247 0.100100
257 0.100100
258 0.200200
272 0.200200
273 0.100100
274 0.100100
275 0.100100
284 0.100100
300 0.400400
301 0.100100
314 0.200200
316 0.300300
317 0.100100
318 0.400400
319 0.300300
320 0.100100
329 1.201201
330 0.300300
331 0.100100
404 0.300300
405 0.100100

Name: 1,4-Butanediamine
Synon: Putrescine
Synon: Tetramethylenediamine
Synon: 1,4-Diaminobutane
SYNON: $:00in-source
DB#: PR010101
InChIKey: KIDHWZJUCRJVML-UHFFFAOYSA-N
Spectrum_type: MS1
Instrument_type: GC-EI-TOF
Instrument: Pegasus III TOF-MS system, Leco; GC 6890, Agilent Technologies
Ion_mode: P
Retention_index: 1736.3
InChIKey: KIDHWZJUCRJVML-UHFFFAOYSA-N
Formula: C4H12N2
MW: 88
ExactMass: 88.10004838399999
Comments: "accession=PR010101" "author=Kusano M, Fukushima A, Plant Science Center, RIKEN." "license=CC BY-SA" "exact mass=88.10005" "instrument=Pegasus III TOF-MS system, Leco; GC 6890, Agilent Technologies" "instrument type=GC-EI-TOF" "ms level=MS1" "retention index=1736.3" "retention time=426.331 sec" "derivative formula=C16H44N2Si4" "derivative mass=376.25816" "derivatization type=4 TMS" "ionization mode=positive" "compound class=Natural Product" "SMILES=NCCCCN" "cas=110-60-1" "chebi=17148" "kegg=C00134" "pubchem=3434" "InChI=InChI=1S/C4H12N2/c5-3-1-2-4-6/h1-6H2" "molecular formula=C4H12N2" "total exact mass=88.10004838399999" "SMILES=C(CCN)CN" "InChIKey=KIDHWZJUCRJVML-UHFFFAOYSA-N"
Num Peaks: 100
60 2.202202
61 0.900901
69 0.100100
70 1.201201
71 1.201201
72 1.901902
73 100.000000
74 9.309309
75 2.602603
76 0.100100
77 0.200200
82 0.100100
83 0.300300
84 0.900901
85 1.501502
86 25.025025
87 2.702703
88 1.201201
89 0.100100
96 0.100100
97 0.400400
98 1.101101
99 4.304304
100 12.412412
101 2.302302
102 2.002002
103 0.500501
104 0.100100
110 0.900901
111 0.200200
112 1.401401
113 1.001001
114 3.103103
115 1.601602
116 2.802803
117 2.302302
118 0.600601
119 0.100100
124 0.200200
125 0.200200
126 3.703704
127 0.500501
128 2.102102
129 0.800801
130 7.207207
131 3.403403
132 1.601602
133 0.300300
134 0.100100
139 0.200200
140 1.201201
141 0.200200
142 3.503504
143 0.600601
144 0.900901
145 0.200200
146 3.803804
147 0.600601
148 0.300300
156 0.300300
157 0.100100
158 1.001001
159 0.200200
160 0.500501
161 0.400400
162 0.100100
170 0.300300
171 0.100100
172 4.204204
173 1.101101
174 69.669670
175 13.813814
176 6.606607
177 0.800801
178 0.100100
184 0.100100
186 0.500501
187 1.201201
188 0.600601
189 0.200200
198 0.200200
199 0.400400
200 5.205205
201 1.201201
202 0.600601
203 0.100100
213 0.200200
214 8.708709
215 2.002002
216 0.800801
217 0.100100
218 0.100100
228 0.300300
273 0.100100
361 1.601602
362 0.600601
363 0.300300
376 1.001001
377 0.400400
378 0.200200

Name: 1,3-Dihydroxyacetone dimer
SYNON: $:00in-source
DB#: PR010002
InChIKey: KEQUNHIAUQQPAC-UHFFFAOYSA-N
Spectrum_type: MS1
Instrument_type: GC-EI-TOF
Instrument: Pegasus III TOF-MS system, Leco; GC 6890, Agilent Technologies
Ion_mode: P
Retention_index: 1243.3
InChIKey: KEQUNHIAUQQPAC-UHFFFAOYSA-N
Formula: C6H12O6
MW: 180
ExactMass: 180.06338810399998
Comments: "accession=PR010002" "author=Kusano M, Fukushima A, Plant Science Center, RIKEN." "license=CC BY-SA" "exact mass=180.06339" "instrument=Pegasus III TOF-MS system, Leco; GC 6890, Agilent Technologies" "instrument type=GC-EI-TOF" "ms level=MS1" "retention index=1243.3" "retention time=297.3 sec" "derivative formula=C12H28O6Si2" "derivative mass=324.14244" "derivatization type=2 TMS" "ionization mode=positive" "compound class=Natural Product" "SMILES=OCC(O)(C1)OCC(O)(CO)O1" "cas=62147-49-3" "InChI=InChI=1S/C6H12O6/c7-1-5(9)3-12-6(10,2-8)4-11-5/h7-10H,1-4H2" "molecular formula=C6H12O6" "total exact mass=180.06338810399998" "SMILES=C(C1(COC(CO)(CO1)O)O)O" "InChIKey=KEQUNHIAUQQPAC-UHFFFAOYSA-N"
Num Peaks: 98
60 1.501502
61 1.501502
62 0.100100
66 0.700701
67 0.100100
68 0.100100
69 0.100100
70 22.222222
71 1.501502
72 2.602603
73 100.000000
74 9.009009
75 5.805806
76 0.400400
77 0.600601
83 0.300300
84 13.713714
85 1.501502
86 1.201201
87 0.900901
88 2.102102
89 18.218218
90 1.501502
91 0.700701
98 0.600601
99 0.400400
100 6.606607
101 1.401401
102 2.902903
103 25.425425
104 2.502503
105 3.103103
106 0.200200
107 0.100100
113 0.200200
114 6.106106
115 1.101101
116 0.900901
117 1.901902
118 0.200200
119 1.301301
120 0.100100
127 0.100100
128 1.001001
129 0.500501
130 0.400400
131 1.401401
132 0.200200
133 9.309309
134 1.301301
135 0.600601
142 4.704705
143 0.600601
144 0.400400
145 0.100100
146 0.100100
147 27.027027
148 4.104104
149 2.202202
150 0.200200
157 0.100100
158 0.600601
159 0.100100
160 4.404404
161 0.500501
162 0.300300
163 11.511512
164 1.801802
165 0.900901
166 0.100100
172 1.001001
173 9.309309
174 1.601602
175 0.500501
177 0.600601
178 0.100100
186 0.200200
188 0.400400
189 0.800801
190 0.100100
191 0.900901
192 0.100100
200 0.100100
201 0.300300
202 0.700701
203 0.200200
204 0.300300
216 0.300300
217 0.400400
218 0.200200
232 0.900901
233 0.300300
234 0.100100
248 3.203203
249 0.600601
250 0.200200
263 0.900901
264 0.100100

Name: 3-METHYLPHENYLACETIC ACID TRIMETHYLSILYL ESTER
SYNON: $:00in-source
DB#: JP007506
InChIKey: DSHGJKVPWKCBSY-UHFFFAOYSA-N
Spectrum_type: MS1
Instrument_type: EI-B
Instrument: JEOL JMS-01-SG
Ion_mode: P
InChIKey: DSHGJKVPWKCBSY-UHFFFAOYSA-N
Formula: C12H18O2Si
MW: 222
ExactMass: 222.107606346
Comments: "accession=JP007506" "author=KOGA M, UNIV. OF OCCUPATIONAL AND ENVIRONMENTAL HEALTH" "license=CC BY-NC-SA" "exact mass=222.10761" "instrument=JEOL JMS-01-SG" "instrument type=EI-B" "ms level=MS1" "ionization energy=70 eV" "ion type=[M]+*" "ionization mode=positive" "SMILES=Cc(c1)cc(cc1)CC(=O)O[Si](C)(C)C" "InChI=InChI=1S/C12H18O2Si/c1-10-6-5-7-11(8-10)9-12(13)14-15(2,3)4/h5-8H,9H2,1-4H3" "molecular formula=C12H18O2Si" "total exact mass=222.107606346" "SMILES=CC=1C=CC=C(C1)CC(=O)O[Si](C)(C)C" "InChIKey=DSHGJKVPWKCBSY-UHFFFAOYSA-N"
Num Peaks: 27
43 2.3
44 1.7
45 6.1
47 0.34
51 1.9
58 1.2
59 0.8
61 0.23
63 1
65 1
72 1.4
73 99.99
74 9.1
75 23.7
76 1.7
77 0.66
78 2.1
79 2.9
103 3.6
104 0.17
151 2.3
178 10.8
179 3.6
207 1
208 1.2
222 4.9
223 0.8

Name: Adonitol
Synon: Ribitol
SYNON: $:00in-source
DB#: PR010134
InChIKey: HEBKCHPVOIAQTA-ZXFHETKHSA-N
Spectrum_type: MS1
Instrument_type: GC-EI-TOF
Instrument: Pegasus III TOF-MS system, Leco; GC 6890, Agilent Technologies
Ion_mode: P
Retention_index: 1710.9
InChIKey: HEBKCHPVOIAQTA-ZXFHETKHSA-N
Formula: C5H12O5
MW: 152
ExactMass: 152.06847348399998
Comments: "accession=PR010134" "author=Kusano M, Fukushima A, Plant Science Center, RIKEN." "license=CC BY-SA" "exact mass=152.06847" "instrument=Pegasus III TOF-MS system, Leco; GC 6890, Agilent Technologies" "instrument type=GC-EI-TOF" "ms level=MS1" "retention index=1710.9" "retention time=416.034 sec" "derivative formula=C20H52O5Si5" "derivative mass=512.26611" "derivatization type=5 TMS" "ionization mode=positive" "compound class=Natural Product" "SMILES=OCC([H])(O)C([H])(O)C([H])(O)CO" "cas=488-81-3" "chebi=15963" "kegg=C00474" "pubchem=3757" "InChI=InChI=1S/C5H12O5/c6-1-3(8)5(10)4(9)2-7/h3-10H,1-2H2/t3-,4+,5-" "molecular formula=C5H12O5" "total exact mass=152.06847348399998" "SMILES=C(C(C(C(CO)O)O)O)O" "InChIKey=HEBKCHPVOIAQTA-ZXFHETKHSA-N"
Num Peaks: 118
60 0.400400
61 0.600601
66 0.400400
67 0.100100
69 0.200200
70 0.300300
71 0.300300
72 1.901902
73 100.000000
74 8.508509
75 5.105105
76 0.300300
77 0.400400
81 0.700701
83 0.400400
84 0.100100
85 0.300300
87 0.500501
88 0.400400
89 2.502503
90 0.200200
91 0.100100
97 0.100100
99 0.300300
101 2.302302
102 0.400400
103 28.128128
104 2.502503
105 1.201201
111 0.200200
113 0.500501
115 0.600601
116 0.900901
117 9.409409
118 1.001001
119 0.900901
120 0.100100
127 0.200200
129 12.712713
130 1.501502
131 2.902903
132 0.400400
133 5.905906
134 0.800801
135 0.500501
141 0.100100
142 0.200200
143 0.900901
144 0.100100
145 0.300300
146 0.100100
147 29.229229
148 4.204204
149 2.602603
150 0.300300
151 0.100100
153 0.100100
155 0.400400
157 1.901902
158 0.200200
159 0.200200
161 0.300300
163 0.400400
169 0.100100
170 0.200200
171 0.200200
173 0.100100
175 0.500501
176 0.100100
177 0.300300
189 4.904905
190 1.101101
191 2.202202
192 0.400400
193 0.200200
201 0.100100
203 1.201201
204 4.204204
205 9.909910
206 2.102102
207 1.201201
208 0.200200
215 0.100100
217 23.523524
218 5.705706
219 2.202202
220 0.400400
221 0.700701
222 0.100100
223 0.100100
229 0.500501
230 0.100100
231 0.100100
243 1.401401
244 0.300300
245 0.200200
277 1.001001
278 0.400400
279 0.200200
291 0.300300
292 0.100100
305 0.100100
306 0.200200
307 3.103103
308 0.900901
309 0.400400
317 0.500501
318 0.200200
319 5.405405
320 1.601602
321 0.700701
322 0.100100
332 0.900901
333 0.300300
334 0.100100
395 0.100100
422 0.300300
423 0.100100

Name: (S)-(+)-2-(anilinomethyl)pyrrolidine
SYNON: $:00in-source
DB#: PR010220
InChIKey: MCHWKJRTMPIHRA-UHFFFAOYSA-N
Spectrum_type: MS1
Instrument_type: GC-EI-TOF
Instrument: Pegasus III TOF-MS system, Leco; GC 6890, Agilent Technologies
Ion_mode: P
Retention_index: 1798.1
InChIKey: MCHWKJRTMPIHRA-UHFFFAOYSA-N
Formula: C11H16N2
MW: 176
ExactMass: 176.131348512
Comments: "accession=PR010220" "author=Kusano M, Fukushima A, Plant Science Center, RIKEN." "license=CC BY-SA" "exact mass=176.13135" "instrument=Pegasus III TOF-MS system, Leco; GC 6890, Agilent Technologies" "instrument type=GC-EI-TOF" "ms level=MS1" "retention index=1798.1" "retention time=473.542 sec" "derivative formula=C17H32N2Si2" "derivative mass=320.2104" "derivatization type=2 TMS" "ionization mode=positive" "compound class=Natural Product" "SMILES=c(c2)ccc(c2)NCC(C1)NCC1" "cas=64030-44-0" "InChI=InChI=1S/C11H16N2/c1-2-5-10(6-3-1)13-9-11-7-4-8-12-11/h1-3,5-6,11-13H,4,7-9H2" "molecular formula=C11H16N2" "total exact mass=176.131348512" "SMILES=C1=CC=C(C=C1)NCC2CCCN2" "InChIKey=MCHWKJRTMPIHRA-UHFFFAOYSA-N"
Num Peaks: 101
60 0.800801
61 0.400400
62 0.100100
63 0.300300
64 0.200200
65 0.400400
66 0.200200
67 0.500501
68 0.100100
69 0.400400
70 3.803804
71 1.101101
72 4.904905
73 100.000000
74 9.009009
75 3.003003
76 0.300300
77 4.204204
78 0.600601
79 0.700701
80 0.200200
81 0.100100
82 0.300300
83 0.500501
84 1.601602
85 1.001001
86 1.001001
87 0.100100
88 0.100100
91 0.500501
92 0.100100
93 0.400400
94 0.100100
95 0.200200
96 0.100100
97 0.200200
98 0.500501
99 0.700701
100 1.501502
101 0.200200
102 0.100100
103 0.100100
104 2.102102
105 1.801802
106 0.800801
107 0.600601
108 0.100100
109 0.100100
110 0.100100
112 0.200200
113 0.600601
114 0.100100
115 0.100100
117 0.100100
118 0.200200
119 0.600601
120 0.400400
121 0.700701
122 0.200200
124 0.300300
126 0.200200
127 0.500501
128 0.300300
130 0.100100
131 0.100100
132 0.200200
133 0.100100
134 0.500501
135 1.301301
136 0.300300
139 0.100100
140 0.900901
141 1.601602
142 96.196196
143 13.313313
144 4.104104
145 0.400400
146 0.200200
147 0.100100
148 0.400400
149 0.300300
150 0.300300
154 0.300300
155 0.100100
156 0.100100
160 0.100100
162 0.700701
163 0.200200
164 0.500501
165 0.100100
176 0.300300
177 0.300300
178 2.202202
179 0.900901
180 0.100100
203 0.200200
217 0.400400
231 0.600601
232 0.100100
305 0.400400
306 0.100100

Name: 2,3-Pyridinedicarboxylic acid
Synon: Pyridine-2,3-dicarboxylate
Synon: Quinolinic acid
Synon: Quinolinate
SYNON: $:00in-source
DB#: PR010082
InChIKey: GJAWHXHKYYXBSV-UHFFFAOYSA-N
Spectrum_type: MS1
Instrument_type: GC-EI-TOF
Instrument: Pegasus III TOF-MS system, Leco; GC 6890, Agilent Technologies
Ion_mode: P
Retention_index: 1721.2
InChIKey: GJAWHXHKYYXBSV-UHFFFAOYSA-N
Formula: C7H5NO4
MW: 167
ExactMass: 167.02185764
Comments: "accession=PR010082" "author=Kusano M, Fukushima A, Plant Science Center, RIKEN." "license=CC BY-SA" "exact mass=167.02186" "instrument=Pegasus III TOF-MS system, Leco; GC 6890, Agilent Technologies" "instrument type=GC-EI-TOF" "ms level=MS1" "retention index=1721.2" "retention time=422.998 sec" "derivative formula=C13H21NO4Si2" "derivative mass=311.10091" "derivatization type=2 TMS" "ionization mode=positive" "compound class=Natural Product" "SMILES=OC(=O)c(c1)c(ncc1)C(O)=O" "cas=89-00-9" "chebi=16675" "kegg=C03722" "pubchem=6487" "InChI=InChI=1S/C7H5NO4/c9-6(10)4-2-1-3-8-5(4)7(11)12/h1-3H,(H,9,10)(H,11,12)" "molecular formula=C7H5NO4" "total exact mass=167.02185764" "SMILES=C1=CC(=C(C(=O)O)N=C1)C(=O)O" "InChIKey=GJAWHXHKYYXBSV-UHFFFAOYSA-N"
Num Peaks: 142
60 0.800801
61 1.601602
62 0.300300
63 0.900901
64 0.900901
65 3.203203
66 3.103103
67 1.601602
69 0.300300
70 1.301301
71 1.201201
72 4.504505
73 98.398398
74 8.508509
75 9.009009
76 3.803804
77 9.909910
78 5.505506
79 2.002002
80 0.600601
81 0.600601
82 0.600601
83 0.900901
84 1.101101
85 0.400400
86 0.300300
87 0.500501
88 0.100100
89 0.500501
90 0.400400
91 2.202202
92 3.803804
93 3.103103
94 1.201201
95 0.800801
96 0.300300
97 0.500501
98 0.200200
99 0.200200
100 0.100100
101 0.200200
102 0.400400
103 1.101101
104 1.201201
105 2.102102
106 3.503504
107 2.202202
108 2.302302
109 1.801802
110 0.700701
111 0.400400
112 0.100100
113 0.100100
115 0.900901
116 0.200200
117 1.001001
118 1.001001
119 1.901902
120 6.006006
121 0.900901
122 0.700701
123 0.500501
124 0.300300
126 0.100100
127 0.100100
128 0.100100
129 0.100100
130 0.100100
131 2.502503
132 0.900901
133 4.204204
134 1.901902
135 1.901902
136 2.902903
137 0.500501
138 0.200200
141 1.101101
142 0.100100
143 0.100100
144 0.100100
146 0.200200
147 100.000000
148 16.216216
149 9.309309
150 2.902903
151 0.600601
152 0.700701
153 0.100100
160 0.100100
162 0.900901
163 0.200200
164 2.202202
165 3.103103
166 0.800801
167 0.400400
168 0.100100
176 0.200200
178 0.900901
179 0.800801
180 0.700701
181 0.200200
182 0.200200
184 0.100100
192 0.100100
193 1.201201
194 19.519520
195 3.203203
196 1.101101
197 0.100100
204 0.100100
208 0.600601
209 0.200200
210 0.500501
211 0.100100
220 0.100100
221 0.600601
222 0.800801
223 0.600601
224 0.900901
225 0.200200
226 0.100100
234 0.300300
235 0.100100
236 0.300300
237 0.100100
238 0.500501
239 0.200200
240 0.100100
250 0.100100
251 0.100100
252 2.802803
253 0.600601
254 0.200200
266 3.203203
267 1.101101
268 1.101101
269 0.200200
295 0.200200
296 13.713714
297 3.303303
298 1.301301
299 0.200200

Name: gamma-Amino-n-butyric acid
Synon: gamma-Aminobutyric acid
Synon: 4-Aminobutanoate
Synon: 4-Aminobutanoic acid
Synon: 4-Aminobutyric acid
Synon: 4-Aminobutyrate
Synon: 4-Aminobutylate
Synon: GABA
SYNON: $:00in-source
DB#: PR010215
InChIKey: BTCSSZJGUNDROE-UHFFFAOYSA-N
Spectrum_type: MS1
Instrument_type: GC-EI-TOF
Instrument: Pegasus III TOF-MS system, Leco; GC 6890, Agilent Technologies
Ion_mode: P
Retention_index: 1526.6
InChIKey: BTCSSZJGUNDROE-UHFFFAOYSA-N
Formula: C4H9NO2
MW: 103
ExactMass: 103.063328528
Comments: "accession=PR010215" "author=Kusano M, Fukushima A, Plant Science Center, RIKEN." "license=CC BY-SA" "exact mass=103.06333" "instrument=Pegasus III TOF-MS system, Leco; GC 6890, Agilent Technologies" "instrument type=GC-EI-TOF" "ms level=MS1" "retention index=1526.6" "retention time=409.917 sec" "derivative formula=C13H33NO2Si3" "derivative mass=319.18191" "derivatization type=3 TMS" "ionization mode=positive" "compound class=Natural Product" "SMILES=NCCCC(O)=O" "cas=56-12-2" "chebi=30566" "kegg=C00334" "pubchem=3628" "InChI=InChI=1S/C4H9NO2/c5-3-1-2-4(6)7/h1-3,5H2,(H,6,7)" "molecular formula=C4H9NO2" "total exact mass=103.063328528" "SMILES=C(CC(=O)O)CN" "InChIKey=BTCSSZJGUNDROE-UHFFFAOYSA-N"
Num Peaks: 110
60 2.402402
61 2.802803
62 0.200200
63 0.100100
66 0.900901
67 0.300300
68 0.500501
69 1.101101
70 1.601602
71 1.201201
72 3.303303
73 100.000000
74 10.010010
75 18.818819
76 1.801802
77 2.102102
78 0.200200
79 0.600601
80 0.100100
82 0.300300
83 0.300300
84 1.101101
85 1.701702
86 19.619620
87 2.602603
88 1.001001
89 0.600601
96 0.100100
97 0.200200
98 1.001001
99 1.601602
100 11.211211
101 2.402402
102 1.901902
103 0.900901
104 0.200200
105 0.300300
110 0.100100
111 0.100100
112 1.001001
113 1.001001
114 1.801802
115 1.701702
116 1.801802
117 2.702703
118 0.500501
119 0.700701
120 0.100100
124 0.100100
126 0.200200
127 0.100100
128 0.800801
129 1.101101
130 4.604605
131 3.903904
132 1.201201
133 5.605606
134 0.800801
135 0.400400
140 1.201201
141 0.200200
142 4.504505
143 4.504505
144 1.401401
145 0.600601
146 1.301301
147 26.226226
148 4.204204
149 2.402402
150 0.200200
154 0.100100
156 1.801802
157 0.500501
158 0.800801
159 0.200200
160 0.200200
161 0.100100
170 0.200200
171 0.100100
172 2.402402
173 0.500501
174 57.457457
175 10.910911
176 5.205205
177 0.600601
178 0.100100
186 0.200200
187 0.100100
188 0.100100
189 0.100100
198 0.100100
200 0.200200
204 0.100100
214 0.900901
215 0.200200
216 4.104104
217 0.800801
218 0.300300
219 0.200200
220 0.100100
230 0.300300
232 0.100100
246 1.701702
247 0.300300
248 0.100100
303 0.100100
304 8.508509
305 2.502503
306 1.201201
307 0.200200

Name: HEXATRIMETHYLSILYLINOSITOL
SYNON: $:00in-source
DB#: JP004551
InChIKey: FRTKXRNTVMCAKI-UHFFFAOYSA-N
Spectrum_type: MS1
Instrument_type: EI-B
Instrument: SHIMADZU LKB-9000B
Ion_mode: P
InChIKey: FRTKXRNTVMCAKI-UHFFFAOYSA-N
Formula: C24H60O6Si6
MW: 612
ExactMass: 612.30054882
Comments: "accession=JP004551" "author=HAYASHI A, DEPT. OF CHEMISTRY, FAC. OF SCI. AND TECHNOLOGY, KINKI UNIV." "license=CC BY-NC-SA" "exact mass=612.30055" "instrument=SHIMADZU LKB-9000B" "instrument type=EI-B" "ms level=MS1" "ionization energy=70 eV" "ion type=[M]+*" "ionization mode=positive" "SMILES=C[Si](C)(C)OC(C(O[Si](C)(C)C)1)C(O[Si](C)(C)C)C(O[Si](C)(C)C)C(O[Si](C)(C)C)C(O[Si](C)(C)C)1" "InChI=InChI=1S/C24H60O6Si6/c1-31(2,3)25-19-20(26-32(4,5)6)22(28-34(10,11)12)24(30-36(16,17)18)23(29-35(13,14)15)21(19)27-33(7,8)9/h19-24H,1-18H3" "molecular formula=C24H60O6Si6" "total exact mass=612.30054882" "SMILES=C[Si](C)(C)OC1C(C(C(C(C1O[Si](C)(C)C)O[Si](C)(C)C)O[Si](C)(C)C)O[Si](C)(C)C)O[Si](C)(C)C" "InChIKey=FRTKXRNTVMCAKI-UHFFFAOYSA-N"
Num Peaks: 177
53 0.4
55 0.4
57 0.3
58 0.02
59 1.5
61 0.3
67 0.5
68 0.02
69 0.3
70 0.3
71 0.2
72 0.12
73 99.99
74 8.4
75 7
76 0.05
77 0.2
79 0.2
81 0.5
83 0.03
84 0.2
85 0.2
87 0.2
89 0.02
95 0.2
97 0.1
99 0.2
101 0.06
102 0.2
103 7.8
104 0.6
105 0.06
109 0.3
111 0.2
113 0.4
115 0.02
116 0.7
117 1.1
118 0.2
119 0.05
123 0.2
125 0.2
127 0.5
128 0.01
129 9.8
130 1.1
131 3.1
132 0.06
133 9.4
134 1.2
135 0.9
141 0.03
142 0.2
143 2.2
144 0.3
145 0.06
146 0.8
147 50.7
148 8
149 0.49
150 0.5
151 0.3
153 0.2
155 0.03
156 0.2
157 0.9
159 0.3
161 0.2
162 0.3
163 0.3
169 0.3
173 0.02
175 0.7
177 0.7
189 1.5
190 0.21
191 46.8
192 8.8
193 4.1
194 0.05
201 0.3
203 1
204 20
205 0.5
206 2.1
207 1.6
208 0.3
209 0.02
215 0.6
216 3.8
217 91.3
218 1.8
219 8.4
220 1.1
221 4.8
222 0.1
223 0.5
229 0.3
230 1.6
231 0.12
232 0.4
233 0.2
243 0.9
244 0.02
245 0.3
246 0.2
264 0.3
265 2.19
266 5.4
267 2.6
268 0.4
271 0.04
277 0.3
278 0.3
279 0.3
289 0.02
290 0.3
291 6.5
292 2
293 0.4
294 1
295 0.4
303 0.6
304 0.49
305 84.3
306 25.4
307 13.4
308 0.26
309 0.7
316 0.6
317 3.7
318 4.46
319 21.2
320 8.8
321 2.4
322 0.05
331 0.3
343 1.1
344 0.3
345 0.05
366 0.6
367 10
368 3.3
369 0.21
370 0.5
379 0.3
391 0.2
392 0.07
393 5.7
394 2
395 1.1
396 0.02
406 0.4
407 0.4
417 0.3
418 0.03
419 0.9
420 0.3
421 0.2
430 0.03
431 0.8
432 9.1
433 8.5
434 0.39
435 1.6
436 0.3
506 0.5
507 0.47
508 0.2
509 1.2
510 0.3
521 0.02
522 0.3
611 0.2
612 1.2
613 0.08
614 0.5

Name: L-Ascorbic acid
Synon: Ascorbic acid
Synon: Ascorbate
Synon: L-Ascorbate
Synon: Vitamin C
SYNON: $:00in-source
DB#: PR010206
InChIKey: CIWBSHSKHKDKBQ-JLAZNSOCSA-N
Spectrum_type: MS1
Instrument_type: GC-EI-TOF
Instrument: Pegasus III TOF-MS system, Leco; GC 6890, Agilent Technologies
Ion_mode: P
Retention_index: 1853.2
InChIKey: CIWBSHSKHKDKBQ-JLAZNSOCSA-N
Formula: C6H8O6
MW: 176
ExactMass: 176.03208797599999
Comments: "accession=PR010206" "author=Kusano M, Fukushima A, Plant Science Center, RIKEN." "license=CC BY-SA" "exact mass=176.03209" "instrument=Pegasus III TOF-MS system, Leco; GC 6890, Agilent Technologies" "instrument type=GC-EI-TOF" "ms level=MS1" "retention index=1853.2" "retention time=485.199 sec" "derivative formula=C18H40O6Si4" "derivative mass=464.1902" "derivatization type=4 TMS" "ionization mode=positive" "compound class=Natural Product" "SMILES=OC[C@H](O)[C@@H](O1)C(O)=C(O)C(=O)1" "cas=50-81-7" "chebi=29073" "kegg=C00072" "pubchem=3372" "InChI=InChI=1S/C6H8O6/c7-1-2(8)5-3(9)4(10)6(11)12-5/h2,5,7-10H,1H2/t2-,5+/m0/s1" "molecular formula=C6H8O6" "total exact mass=176.03208797599999" "SMILES=C(C(C1C(=C(C(=O)O1)O)O)O)O" "InChIKey=CIWBSHSKHKDKBQ-JLAZNSOCSA-N"
Num Peaks: 129
60 0.700701
61 0.700701
63 0.100100
66 0.500501
67 0.100100
70 0.700701
71 0.400400
72 1.801802
73 100.000000
74 9.109109
75 5.105105
76 0.300300
77 1.101101
78 0.100100
79 0.200200
80 0.100100
82 0.100100
83 0.100100
84 3.203203
85 0.500501
86 0.300300
87 0.300300
88 0.300300
89 7.807808
90 0.600601
91 0.300300
96 0.100100
98 0.200200
99 0.200200
100 2.102102
101 1.401401
102 0.400400
103 5.405405
104 0.500501
105 0.700701
107 0.100100
111 0.100100
112 0.200200
113 0.200200
114 0.100100
115 0.300300
116 0.300300
117 7.807808
118 0.800801
119 0.600601
125 0.500501
126 0.400400
127 0.200200
128 0.500501
129 0.600601
130 0.500501
131 1.401401
132 0.200200
133 8.608609
134 1.101101
135 0.500501
141 0.100100
142 0.100100
143 0.200200
144 0.300300
145 0.100100
147 16.816817
148 2.602603
149 1.601602
150 0.200200
153 0.100100
154 0.100100
155 0.100100
157 0.100100
158 0.500501
159 0.100100
160 0.100100
161 0.100100
163 0.700701
164 0.100100
165 0.100100
172 2.002002
173 0.400400
174 0.200200
175 0.500501
176 0.100100
177 0.100100
183 0.100100
184 0.100100
185 0.700701
186 0.200200
188 0.100100
189 0.400400
190 1.301301
191 0.600601
192 0.100100
200 0.100100
201 0.200200
202 0.100100
204 0.300300
205 3.803804
206 0.700701
207 0.400400
211 0.100100
216 0.100100
217 0.600601
218 0.100100
221 0.100100
243 0.300300
244 0.100100
246 0.100100
255 0.100100
271 0.300300
272 0.100100
273 0.100100
276 1.101101
277 0.200200
278 0.100100
289 1.101101
290 0.300300
291 0.100100
302 0.100100
303 2.602603
304 0.800801
305 0.300300
334 0.400400
335 0.100100
344 0.100100
347 0.100100
375 0.100100
376 0.100100
406 0.400400
407 0.100100
435 0.100100

Name: 3-TRIMETHYLSILYLMETHYL-4-HYDROXY-2-METHYL-1-HEXENE
SYNON: $:00in-source
DB#: JP009766
InChIKey: LTTVLXPPUDUYBC-UHFFFAOYSA-N
Spectrum_type: MS1
Instrument_type: EI-B
Instrument: JEOL JMS-DX-300
Ion_mode: P
InChIKey: LTTVLXPPUDUYBC-UHFFFAOYSA-N
Formula: C11H24OSi
MW: 200
ExactMass: 200.159641918
Comments: "accession=JP009766" "author=HISAHIRO HAGIWARA, CHEMICAL RESEARCH INSTITUTE OF NON-AQUEOUSSOLUTIONS TOHOKU UNIV." "license=CC BY-NC-SA" "exact mass=200.15964" "instrument=JEOL JMS-DX-300" "instrument type=EI-B" "ms level=MS1" "ionization energy=70 eV" "ion type=[M]+*" "ionization mode=positive" "SMILES=CCC(O)C(C(C)=C)C[Si](C)(C)C" "InChI=InChI=1S/C11H24OSi/c1-7-11(12)10(9(2)3)8-13(4,5)6/h10-12H,2,7-8H2,1,3-6H3" "molecular formula=C11H24OSi" "total exact mass=200.159641918" "SMILES=CCC(C(C[Si](C)(C)C)C(=C)C)O" "InChIKey=LTTVLXPPUDUYBC-UHFFFAOYSA-N"
Num Peaks: 31
31 3.74
39 1.49
41 3.68
43 2.91
44 1.59
45 8.31
47 1.65
53 1.24
57 1.6
58 1.4
59 8.35
61 1.62
67 1.56
68 3.56
72 1.59
73 99.99
74 10.19
75 26.84
76 2.02
77 0.18
81 4.95
83 1
85 1.85
95 2.37
99 2.45
111 2.01
127 1.86
131 0.17
141 4.15
142 10.16
143 1.78

Name: D-Glucose-6-phosphate
Synon: D-Glucose 6-phosphate
SYNON: $:00in-source
DB#: PR010050
InChIKey: NBSCHQHZLSJFNQ-GASJEMHNSA-N
Spectrum_type: MS1
Instrument_type: GC-EI-TOF
Instrument: Pegasus III TOF-MS system, Leco; GC 6890, Agilent Technologies
Ion_mode: P
Retention_index: 2300.2
InChIKey: NBSCHQHZLSJFNQ-GASJEMHNSA-N
Formula: C6H13O9P
MW: 260
ExactMass: 260.029718626
Comments: "accession=PR010050" "author=Kusano M, Fukushima A, Plant Science Center, RIKEN." "license=CC BY-SA" "exact mass=260.02972" "instrument=Pegasus III TOF-MS system, Leco; GC 6890, Agilent Technologies" "instrument type=GC-EI-TOF" "ms level=MS1" "retention index=2300.2" "retention time=538.069 sec" "derivative formula=C25H64NO9PSi6" "derivative mass=721.29343" "derivatization type=6 TMS; 1 MEOX" "ionization mode=positive" "compound class=Natural Product" "SMILES=OC(O1)[C@H](O)[C@@H](O)[C@H](O)[C@H]1COP(O)(O)=O" "cas=54010-71-8" "InChI=InChI=1S/C6H13O9P/c7-3-2(1-14-16(11,12)13)15-6(10)5(9)4(3)8/h2-10H,1H2,(H2,11,12,13)/t2-,3-,4+,5-,6?/m1/s1" "molecular formula=C6H13O9P" "total exact mass=260.029718626" "SMILES=C(C1C(C(C(C(O)O1)O)O)O)OP(O)(O)=O" "InChIKey=NBSCHQHZLSJFNQ-GASJEMHNSA-N"
Num Peaks: 214
60 0.500501
61 0.800801
63 0.100100
65 0.100100
66 0.300300
67 0.300300
69 0.300300
70 0.400400
71 0.400400
72 1.501502
73 100.000000
74 8.408408
75 6.606607
76 0.500501
77 1.401401
78 0.100100
79 0.600601
80 0.100100
81 0.200200
82 0.800801
83 0.200200
84 0.300300
85 0.600601
86 0.400400
87 0.400400
88 0.100100
89 4.304304
90 0.400400
91 0.200200
96 0.100100
97 0.200200
98 0.100100
99 0.500501
100 0.900901
101 3.803804
102 1.001001
103 2.902903
104 0.300300
105 2.102102
106 0.300300
107 0.100100
110 0.100100
111 0.200200
112 0.200200
113 0.600601
114 0.900901
115 0.800801
116 1.401401
117 1.401401
118 0.200200
119 0.500501
121 0.100100
126 0.100100
127 0.400400
128 0.400400
129 6.706707
130 1.501502
131 2.402402
132 0.400400
133 4.704705
134 0.700701
135 0.900901
136 0.100100
137 0.200200
138 0.200200
140 0.100100
141 0.200200
142 0.400400
143 0.900901
144 0.200200
145 0.600601
146 0.100100
147 11.211211
148 1.801802
149 1.401401
150 0.100100
151 0.400400
152 0.100100
153 0.100100
154 0.100100
155 0.100100
156 0.200200
157 3.303303
158 0.700701
159 0.300300
160 7.607608
161 1.501502
162 0.400400
163 0.400400
165 0.100100
167 0.100100
168 0.100100
169 0.300300
170 0.200200
171 0.100100
172 0.100100
173 0.300300
174 0.100100
175 0.100100
177 0.100100
179 0.100100
180 0.100100
181 0.400400
182 0.100100
183 0.100100
186 0.300300
187 0.100100
189 0.700701
190 0.200200
191 1.101101
192 0.200200
193 0.500501
194 0.100100
195 0.400400
196 0.200200
197 0.200200
198 0.100100
200 0.100100
201 0.100100
203 0.200200
204 1.201201
205 0.500501
206 0.100100
207 1.101101
208 0.200200
209 0.200200
210 0.200200
211 2.502503
212 0.600601
213 0.300300
214 0.100100
215 0.300300
216 0.400400
217 3.403403
218 0.800801
219 0.300300
221 0.200200
225 0.900901
226 0.100100
227 0.600601
228 0.500501
229 0.400400
230 0.300300
231 0.500501
232 0.200200
233 0.100100
234 0.100100
241 0.100100
242 0.100100
243 0.400400
244 0.200200
245 0.100100
246 0.100100
247 0.900901
248 0.200200
253 0.200200
254 0.100100
255 0.100100
256 0.100100
259 0.100100
262 0.100100
268 0.100100
269 0.300300
270 0.200200
274 0.200200
275 0.100100
283 0.300300
284 0.100100
285 0.300300
286 0.200200
291 0.100100
298 0.300300
299 7.907908
300 2.402402
301 1.201201
302 0.300300
303 0.100100
305 0.100100
313 0.200200
314 0.400400
315 3.703704
316 1.001001
317 0.500501
318 0.100100
319 0.100100
328 0.100100
331 1.101101
332 0.300300
333 0.100100
341 0.300300
342 0.100100
343 0.100100
356 0.200200
357 2.702703
358 0.800801
359 0.400400
360 0.100100
364 0.100100
371 0.100100
373 0.200200
374 0.100100
385 0.100100
386 1.201201
387 10.110110
388 3.703704
389 2.302302
390 0.600601
391 0.200200
403 0.100100
470 0.100100
471 1.201201
472 0.500501
473 0.300300
474 0.100100

Name: R-(-)-1-Amino-2-propanol
SYNON: $:00in-source
DB#: PR010230
InChIKey: HXKKHQJGJAFBHI-GSVOUGTGSA-N
Spectrum_type: MS1
Instrument_type: GC-EI-TOF
Instrument: Pegasus III TOF-MS system, Leco; GC 6890, Agilent Technologies
Ion_mode: P
Retention_index: 1312.8
InChIKey: HXKKHQJGJAFBHI-GSVOUGTGSA-N
Formula: C3H9NO
MW: 75
ExactMass: 75.068413908
Comments: "accession=PR010230" "author=Kusano M, Fukushima A, Plant Science Center, RIKEN." "license=CC BY-SA" "exact mass=75.06841" "instrument=Pegasus III TOF-MS system, Leco; GC 6890, Agilent Technologies" "instrument type=GC-EI-TOF" "ms level=MS1" "retention index=1312.8" "retention time=351.012 sec" "derivative formula=C12H33NOSi3" "derivative mass=291.18699" "derivatization type=3 TMS" "ionization mode=positive" "compound class=Natural Product" "SMILES=NCC(C)O" "cas=2799-16-8" "InChI=InChI=1S/C3H9NO/c1-3(5)2-4/h3,5H,2,4H2,1H3/t3-/m1/s1" "molecular formula=C3H9NO" "total exact mass=75.068413908" "SMILES=CC(CN)O" "InChIKey=HXKKHQJGJAFBHI-GSVOUGTGSA-N"
Num Peaks: 79
60 2.202202
61 1.801802
62 0.100100
66 0.800801
67 0.100100
69 0.100100
70 1.401401
71 1.101101
72 2.702703
73 100.000000
74 9.109109
75 5.505506
76 0.400400
77 0.400400
82 0.100100
83 0.200200
84 0.700701
85 1.001001
86 27.327327
87 4.604605
88 1.301301
89 0.300300
98 0.300300
99 0.500501
100 14.014014
101 3.303303
102 4.204204
103 1.401401
104 0.300300
105 0.400400
112 0.400400
113 0.800801
114 11.711712
115 2.602603
116 2.202202
117 5.805806
118 0.900901
119 1.501502
120 0.200200
121 0.100100
128 2.102102
129 0.600601
130 4.804805
131 3.903904
132 1.101101
133 12.212212
134 1.801802
135 0.900901
136 0.100100
142 0.100100
143 0.100100
144 1.001001
145 0.300300
146 0.400400
147 11.911912
148 1.901902
149 0.900901
150 0.100100
158 0.700701
159 0.300300
160 0.200200
172 0.700701
173 0.200200
174 56.156156
175 11.211211
176 5.705706
177 0.700701
178 0.100100
186 0.300300
187 0.100100
188 1.301301
189 0.300300
190 0.100100
202 0.600601
203 0.100100
204 0.200200
276 1.301301
277 0.300300
278 0.100100

Name: 5-Hydoxytryptamine
Synon: Serotonin
SYNON: $:00in-source
DB#: PR010094
InChIKey: QZAYGJVTTNCVMB-UHFFFAOYSA-N
Spectrum_type: MS1
Instrument_type: GC-EI-TOF
Instrument: Pegasus III TOF-MS system, Leco; GC 6890, Agilent Technologies
Ion_mode: P
Retention_index: 2459.2
InChIKey: QZAYGJVTTNCVMB-UHFFFAOYSA-N
Formula: C10H12N2O
MW: 176
ExactMass: 176.094963004
Comments: "accession=PR010094" "author=Kusano M, Fukushima A, Plant Science Center, RIKEN." "license=CC BY-SA" "exact mass=176.09496" "instrument=Pegasus III TOF-MS system, Leco; GC 6890, Agilent Technologies" "instrument type=GC-EI-TOF" "ms level=MS1" "retention index=2459.2" "retention time=562.521 sec" "derivative formula=C25H52N2OSi5" "derivative mass=536.2926" "derivatization type=5 TMS" "ionization mode=positive" "compound class=Natural Product" "SMILES=NCCc(c1)c(c2)c(ccc(O)2)n1" "cas=153-98-0" "InChI=InChI=1S/C10H12N2O/c11-4-3-7-6-12-10-2-1-8(13)5-9(7)10/h1-2,5-6,12-13H,3-4,11H2" "molecular formula=C10H12N2O" "total exact mass=176.094963004" "SMILES=C1=CC2=C(C=C1O)C(CCN)=CN2" "InChIKey=QZAYGJVTTNCVMB-UHFFFAOYSA-N"
Num Peaks: 125
60 0.800801
61 0.500501
62 0.100100
63 0.100100
67 0.100100
70 0.400400
71 0.300300
72 1.001001
73 100.000000
74 8.308308
75 3.003003
76 0.200200
77 0.800801
78 0.100100
83 0.200200
84 0.300300
85 0.300300
86 18.118118
87 1.701702
88 0.700701
89 0.100100
91 0.100100
99 0.100100
100 7.907908
101 1.301301
102 1.101101
103 0.300300
105 0.100100
113 0.200200
114 0.200200
115 0.700701
116 0.700701
117 1.201201
118 0.200200
119 0.200200
127 0.100100
128 0.300300
129 0.300300
130 2.502503
131 1.401401
132 0.400400
133 0.300300
134 0.100100
135 0.100100
142 0.200200
143 0.200200
144 0.600601
145 0.300300
146 0.900901
147 0.500501
148 0.100100
149 0.100100
154 0.100100
156 0.200200
157 0.100100
158 0.800801
159 0.300300
160 0.200200
161 0.100100
169 0.100100
170 0.200200
171 0.100100
172 1.101101
173 0.300300
174 96.396396
175 17.417417
176 8.308308
177 1.001001
178 0.200200
184 0.200200
185 0.100100
186 0.700701
187 0.200200
188 0.200200
190 0.100100
198 0.100100
199 0.100100
200 0.300300
201 0.200200
202 1.601602
203 0.300300
204 0.200200
214 0.100100
215 0.100100
216 0.300300
217 0.300300
218 0.400400
219 0.100100
230 0.300300
231 0.100100
232 0.300300
233 0.200200
234 0.100100
244 0.100100
246 0.100100
258 0.100100
260 0.800801
261 0.200200
262 0.100100
272 0.100100
273 0.100100
274 0.200200
275 0.100100
276 0.100100
287 0.200200
288 0.400400
289 0.200200
290 2.602603
291 0.900901
292 0.300300
293 0.100100
302 0.300300
303 0.200200
304 0.100100
361 0.700701
362 0.300300
363 0.100100
375 0.100100
448 0.100100
449 0.700701
450 0.300300
451 0.100100
464 0.500501
465 0.300300
466 0.100100

Name: BENZENE-1,2,4,5-TETRACARBOXYLIC ACID TETRA(TRIMETHYLSILYL) ESTER
SYNON: $:00in-source
DB#: JP000601
InChIKey: BKFGZLAJFGESBT-UHFFFAOYSA-N
Spectrum_type: MS1
Instrument_type: EI-B
Instrument: JEOL JMS-01-SG
Ion_mode: P
InChIKey: BKFGZLAJFGESBT-UHFFFAOYSA-N
Formula: C22H38O8Si4
MW: 542
ExactMass: 542.164374296
Comments: "accession=JP000601" "author=KOGA M, UNIV. OF OCCUPATIONAL AND ENVIRONMENTAL HEALTH" "license=CC BY-NC-SA" "exact mass=542.16437" "instrument=JEOL JMS-01-SG" "instrument type=EI-B" "ms level=MS1" "ionization energy=70 eV" "ion type=[M]+*" "ionization mode=positive" "SMILES=C[Si](C)(C)OC(=O)c(c1)c(C(=O)O[Si](C)(C)C)cc(C(=O)O[Si](C)(C)C)c(C(=O)O[Si](C)(C)C)1" "InChI=InChI=1S/C22H38O8Si4/c1-31(2,3)27-19(23)15-13-17(21(25)29-33(7,8)9)18(22(26)30-34(10,11)12)14-16(15)20(24)28-32(4,5)6/h13-14H,1-12H3" "molecular formula=C22H38O8Si4" "total exact mass=542.164374296" "SMILES=C[Si](C)(C)OC(C1=CC(=C(C=C1C(=O)O[Si](C)(C)C)C(=O)O[Si](C)(C)C)C(=O)O[Si](C)(C)C)=O" "InChIKey=BKFGZLAJFGESBT-UHFFFAOYSA-N"
Num Peaks: 16
54 4.1
66 4.8
72 4.1
73 99.99
74 10.2
75 19.3
77 18.8
89 0.68
93 7.5
131 5.7
147 89.9
148 1.36
149 7.8
221 4.3
291 4.1
527 5.5

Name: Glycerol 1-phosphate
Synon: rac-Glycerol 3-phosphoate
SYNON: $:00in-source
DB#: KZ000210
InChIKey: AWUCVROLDVIAJX-VKHMYHEASA-N
Spectrum_type: MS1
Instrument_type: GC-EI-TOF
Instrument: Pegasus III TOF-MS system, Leco; GC 6890, Agilent Technologies
Ion_mode: P
Retention_index: 1812.6
InChIKey: AWUCVROLDVIAJX-VKHMYHEASA-N
Formula: C3H9O6P
MW: 172
ExactMass: 172.013674638
Comments: "accession=KZ000210" "author=Ara T, Morishita Y, Shibata D, Kazusa DNA Research Institute" "license=CC BY-SA" "exact mass=172.01367" "instrument=Pegasus III TOF-MS system, Leco; GC 6890, Agilent Technologies" "instrument type=GC-EI-TOF" "ms level=MS1" "column=DB-17MS" "retention index=1812.6" "retention time=842.963 sec" "derivatization type=4 TMS" "ionization mode=positive" "compound class=Natural Product" "SMILES=OCC(O)COP(O)(O)=O" "cas=5746-57-6" "kegg=C00623" "InChI=InChI=1S/C3H9O6P/c4-1-3(5)2-9-10(6,7)8/h3-5H,1-2H2,(H2,6,7,8)/t3-/m0/s1" "molecular formula=C3H9O6P" "total exact mass=172.013674638" "SMILES=C(C(COP(O)(O)=O)O)O" "InChIKey=AWUCVROLDVIAJX-VKHMYHEASA-N"
Num Peaks: 270
82 0.100100
83 0.800801
84 1.301301
85 6.906907
86 1.201201
87 7.207207
88 3.503504
89 8.808809
90 1.301301
91 1.601602
92 1.001001
93 1.101101
94 0.300300
95 0.400400
96 0.500501
97 0.600601
98 1.101101
99 5.005005
100 1.001001
101 100.000000
102 11.111111
103 84.784785
104 8.908909
105 7.307307
106 1.001001
107 2.002002
108 0.300300
109 0.800801
110 0.100100
111 1.301301
112 0.300300
113 16.016016
114 2.102102
115 18.618619
116 19.319319
117 15.815816
118 2.502503
119 7.107107
120 1.101101
121 3.603604
122 0.500501
123 1.501502
124 0.200200
125 0.200200
126 0.100100
127 1.001001
128 0.900901
129 46.446446
130 9.109109
131 41.541542
132 5.605606
133 60.360360
134 8.608609
135 16.616617
136 1.901902
137 5.405405
138 0.600601
139 0.700701
140 0.100100
141 0.100100
142 0.100100
143 0.600601
144 0.100100
145 1.701702
146 0.400400
147 96.796797
148 15.415415
149 13.413413
150 1.801802
151 4.604605
152 0.600601
153 1.201201
154 0.100100
155 0.300300
157 0.200200
159 0.700701
160 0.100100
161 0.700701
162 0.300300
163 3.703704
164 0.700701
165 1.901902
166 0.400400
167 1.601602
168 0.300300
169 0.300300
170 0.100100
171 0.100100
172 0.100100
173 0.200200
174 0.100100
175 1.001001
176 0.400400
177 1.701702
178 0.500501
179 1.901902
180 0.500501
181 7.107107
182 1.201201
183 2.902903
184 0.600601
185 0.400400
186 0.100100
187 0.200200
188 0.100100
189 2.202202
190 0.600601
191 7.907908
192 1.901902
193 8.908909
194 1.801802
195 7.807808
196 1.401401
197 2.302302
198 0.500501
199 0.300300
200 0.200200
201 0.200200
202 0.100100
203 6.406406
204 1.901902
205 4.204204
206 0.900901
207 16.716717
208 3.603604
209 3.103103
210 1.401401
211 45.345345
212 7.607608
213 4.504505
214 0.600601
215 0.300300
216 0.100100
217 2.102102
218 10.810811
219 5.405405
220 1.601602
221 1.101101
222 0.300300
223 0.400400
224 0.200200
225 10.310310
226 3.303303
227 9.109109
228 1.601602
229 0.700701
230 0.100100
237 0.400400
238 0.100100
239 0.300300
240 0.400400
241 9.709710
242 2.102102
243 5.305305
244 0.900901
245 0.400400
246 0.100100
247 0.100100
248 0.100100
249 0.200200
250 0.100100
251 0.200200
252 0.100100
253 2.002002
254 0.600601
255 1.801802
256 10.110110
257 2.002002
258 0.900901
259 0.100100
265 0.100100
267 0.300300
268 0.200200
269 2.202202
270 0.700701
271 0.600601
272 0.100100
281 0.200200
282 0.200200
283 2.602603
284 1.401401
285 8.108108
286 2.102102
287 1.201201
288 0.200200
289 0.100100
297 0.400400
298 5.905906
299 99.299299
300 26.226226
301 14.614615
302 2.702703
303 0.800801
304 0.200200
305 0.200200
306 0.100100
307 0.200200
308 0.200200
309 0.200200
310 0.200200
311 0.300300
312 0.200200
313 1.801802
314 4.804805
315 20.020020
316 6.506507
317 3.203203
318 0.700701
319 0.200200
320 0.100100
326 0.100100
327 1.401401
328 4.504505
329 1.601602
330 0.600601
331 0.100100
337 0.100100
339 0.100100
340 0.700701
341 6.906907
342 3.403403
343 1.701702
344 0.600601
345 0.200200
346 0.100100
347 0.200200
348 0.200200
349 0.200200
350 0.200200
351 0.200200
352 0.200200
353 0.200200
354 0.100100
355 0.600601
356 5.105105
357 63.063063
358 18.318318
359 9.409409
360 1.901902
361 0.500501
362 0.100100
369 0.600601
370 8.408408
371 2.702703
372 1.701702
373 4.604605
374 1.701702
375 0.900901
376 0.300300
377 0.100100
385 0.100100
386 1.101101
387 6.906907
388 2.802803
389 3.003003
390 1.101101
391 0.500501
392 0.200200
414 0.100100
415 0.800801
416 0.400400
417 0.400400
418 0.100100
429 0.100100
444 1.301301
445 8.208208
446 3.303303
447 1.601602
448 0.400400
449 0.100100
